100 274816
15 63 9 1 28 87 30 64 32 33 35 24 17 44 29 10 83 77 55 88 21 73 100 98 16 52 68 72 49 89 94 81 59 13 80 79 75 2 23 48 85 31 22 54 41 61 56 3 51 53 62 39 71 45 27 76 69 99 12 65 34 67 96 93 47 38 90 5 19 70 74 82 11 86 37 42 26 97 18 6 60 14 91 58 4 8 95 7 20 36 57 66 84 46 43 78 40 25 92 50 
